/*********************************************
    * Lab01 - simple
    * Author: Coso
    * Creation Date: Mar, 2019
    *********************************************/
instance_name = "medium_instance_20_simple";

d = 5;
r = 15;

SCj = [264 262 232 279 268];
Dk = [40 63 51 49 43 80 85 68 22 72 61 25 34 64 51];

Cjk = [[35 65 37 52 36 59 33 89 46 37 65 71 55 49 51]
 [74 32 63 33 69 59 89 40 60 76 43 83 62 68 68]
 [79 68 37 86 43 53 50 66 63 85 80 45 88 43 39]
 [60 63 63 40 60 53 73 45 85 48 84 33 52 37 71]
 [65 61 53 80 84 53 77 60 44 87 73 44 69 85 44]];
